GLPSOL: GLPK LP/MIP Solver, v4.55
Parameter(s) specified in the command line:
 -m tmp.mod
Reading model section from tmp.mod...
Reading data section from tmp.mod...
3399 lines were read
Generating obj...
Generating kirhoff...
Generating init_charge...
Generating batt_size...
Model has been successfully generated
GLPK Simplex Optimizer, v4.55
6451 rows, 6120 columns, 12940 non-zeros
Preprocessing...
3433 rows, 5942 columns, 12644 non-zeros
Scaling...
 A: min|aij| =  1.000e+00  max|aij| =  1.000e+00  ratio =  1.000e+00
Problem data seem to be well scaled
Constructing initial basis...
Size of triangular part is 2725
      0: obj =   0.000000000e+00  infeas =  6.561e+03 (708)
    500: obj =   8.200000000e+01  infeas =  2.674e+03 (645)
*   900: obj =   4.965000000e+02  infeas =  0.000e+00 (636)
*  1000: obj =   3.340000000e+02  infeas =  0.000e+00 (635)
*  1180: obj =   2.140000000e+02  infeas =  0.000e+00 (634)
OPTIMAL LP SOLUTION FOUND
Time used:   0.3 secs
Memory used: 13.2 Mb (13873961 bytes)
#OUTPUT:
214
-4 -59 0 0 -92 0 8 0 -84 -5 0 0 -84 0 0 2 -1 -3 0 0 0 0 -1 -76 -9 0 6 26 0 0 0 0 0 0 0 2 0 8 8 -8 5 38 -2 0 -3 0 0 0 0 0 0 0 0 0 -2 0 -1 0 0 0 0 6 0 -1 31 38 0 0 38 -3 -8 0 0 0 0 0 -2 0 0 0 -38 -15 25 0 1 -44 0 0 0 0 0 0 0 0 0 0 0 0 -1 0 0 0 0 0 0 -8 0 0 0 0 0 0 0 0 0 -3 0 5 0 0 0 0 0 0 0 5 0 0 0 0 0 0 0 -8 0 0 -1 -3 0 38 0 0 0 0 0 0 2 0 -31 0 0 2 19 44 0 0 0 1 0 -1 1 8 0 0 0 0 0 0 -5 0 0 0 8 1 0 0 -38 0 0 0 0 0 0 0 0 0 0 0 0 0 0 0 0 0 0 0 0 0 0 0 0 0 0 0 0 0 0 0 0 0 0 0 0 0 0 0 0 0 0 0 0 0 0 0 0 0 0 0 0 0 0 0 0 0 0 0 0 0 0 0 0 0 0 0 0 0 0 0 0 0 0 0 0 0 0 0 0 0 0 0 0 0 0 0 0 0 0 0 0 0 0 0 0 0 0 0 
0 -90 -2 0 -88 -2 -88 -64 -84 -5 0 0 -84 -3 0 -75 -1 0 1 0 0 0 -1 -41 -1 0 0 1 0 0 0 -33 0 0 -2 -80 0 0 0 -6 0 38 10 0 0 -3 1 -32 0 0 -43 0 -3 0 0 0 0 -3 0 0 -3 0 0 -1 20 38 0 3 38 0 0 0 0 0 -10 0 0 0 0 0 -38 -1 0 0 0 -19 0 0 3 0 0 0 0 0 0 0 0 0 -1 0 0 0 0 0 0 0 0 0 0 0 -3 0 0 0 0 0 0 3 0 0 0 0 0 0 0 3 0 0 0 0 0 0 0 -7 0 0 -1 0 0 38 5 -1 32 0 3 0 2 1 -21 0 10 0 19 19 -3 0 0 1 0 0 0 0 0 0 0 3 0 0 -3 0 0 0 7 1 0 0 -38 0 0 0 0 0 0 0 0 0 0 0 0 0 0 0 0 0 0 0 0 0 0 0 0 0 0 0 0 0 0 0 0 0 0 0 0 0 0 0 0 0 0 0 0 0 0 0 0 0 0 0 0 0 0 0 0 0 0 0 0 0 0 0 0 0 0 0 0 0 0 0 0 0 0 0 0 0 0 0 0 0 0 0 0 0 0 0 0 0 0 0 0 0 0 0 0 0 0 0 
-58 -28 -10 -3 27 2 27 3 -12 -5 0 0 -12 0 -11 0 0 -53 0 0 0 -44 0 -12 -25 -5 0 -5 3 0 2 -24 0 -44 0 0 -1 2 2 11 12 0 0 2 -53 0 1 -23 -8 -1 0 -8 0 0 0 -3 -2 0 0 0 3 0 1 0 0 0 0 0 0 -53 0 0 0 3 12 0 44 0 0 0 0 -25 -4 0 1 -5 0 0 0 0 0 0 0 0 -11 0 0 0 1 0 0 0 1 0 0 0 0 0 0 0 0 5 0 0 -12 19 -5 11 0 0 0 0 -32 0 0 11 0 0 0 0 5 -8 0 10 0 0 0 19 0 0 0 -1 23 -3 0 -1 0 6 -6 -3 -12 -44 9 5 0 0 0 -1 0 -2 1 0 0 0 0 0 5 0 -11 -5 0 0 -10 0 -11 -8 0 0 0 0 0 0 0 0 0 0 0 0 0 0 0 0 0 0 0 0 0 0 0 0 0 0 0 0 0 0 0 0 0 0 0 0 0 0 0 0 0 0 0 0 0 0 0 0 0 0 0 0 0 0 0 0 0 0 0 0 0 0 0 0 0 0 0 0 0 0 0 0 0 0 0 0 0 0 0 0 0 0 0 0 0 0 0 0 0 0 0 0 0 0 0 0 0 0 0 0 
-38 -82 0 -3 -22 0 -22 0 -84 -5 0 0 -84 -2 -11 0 0 -33 -4 -2 0 -4 0 -1 -15 -5 0 26 0 0 0 -1 0 -4 0 0 0 0 0 1 7 0 4 0 -33 0 1 0 -47 0 0 -47 3 0 0 0 -2 0 0 -88 3 0 2 0 0 0 0 0 0 -33 5 0 0 0 0 0 4 0 0 0 -13 -15 25 -2 0 -6 0 0 0 0 0 0 -13 0 -11 0 0 0 -1 0 0 0 2 0 0 -8 0 0 0 0 0 -56 0 0 0 -33 -5 0 0 0 0 0 0 0 0 0 0 0 0 0 5 -47 0 0 0 0 0 -33 0 0 0 -1 0 -3 0 0 0 -5 5 0 0 -4 -19 6 0 0 13 1 0 -2 0 8 0 0 0 0 5 0 0 -5 2 -2 0 0 -11 -47 0 0 0 0 0 0 0 0 0 0 0 0 0 0 0 0 0 0 0 0 0 0 0 0 0 0 0 0 0 0 0 0 0 0 0 0 0 0 0 0 0 0 0 0 0 0 0 0 0 0 0 0 0 0 0 0 0 0 0 0 0 0 0 0 0 0 0 0 0 0 0 0 0 0 0 0 0 0 0 0 0 0 0 0 0 0 0 0 0 0 0 0 0 0 0 0 0 0 0 0 
-35 -90 -2 -3 -88 -2 -88 -25 -84 -5 0 0 -84 0 11 5 -1 -14 4 0 0 -44 -1 -35 5 -4 -9 0 14 0 -2 -33 0 -44 2 2 -1 -87 -87 -11 0 29 -48 -2 -14 1 -1 -34 0 -1 0 0 -1 0 0 1 -18 -86 0 0 -2 -9 1 -1 39 29 0 -13 29 -14 -49 0 0 -1 -84 0 44 0 0 0 -29 14 0 0 1 0 0 0 0 0 0 0 0 0 11 0 0 0 0 0 0 0 1 0 15 0 0 0 -16 0 -86 4 0 0 0 -14 -4 0 0 0 0 0 -77 0 0 0 0 0 0 0 4 0 0 -10 0 0 -1 -14 0 29 3 1 34 -3 5 -1 2 -6 -33 1 -15 -44 0 0 0 0 0 0 0 -2 1 0 15 1 -1 -13 4 0 0 -4 0 0 10 1 11 0 -29 0 0 0 0 0 0 0 0 0 0 0 0 0 0 0 0 0 0 0 0 0 0 0 0 0 0 0 0 0 0 0 0 0 0 0 0 0 0 0 0 0 0 0 0 0 0 0 0 0 0 0 0 0 0 0 0 0 0 0 0 0 0 0 0 0 0 0 0 0 0 0 0 0 0 0 0 0 0 0 0 0 0 0 0 0 0 0 0 0 0 0 0 0 0 0 0 0 0 0 
0 -66 -9 0 -28 -9 -28 -4 -84 -5 6 0 -25 -3 0 0 0 0 -4 -2 0 0 0 -30 -10 -6 -9 -4 0 0 2 -2 0 0 1 1 1 -3 -3 3 -12 0 0 2 0 0 0 -2 0 1 0 0 0 0 0 0 0 0 0 0 0 -9 0 0 -8 0 0 0 0 0 5 0 0 0 0 0 0 0 0 0 0 -1 -5 -2 1 -54 0 0 -1 0 0 0 0 0 0 0 0 0 -1 0 0 0 0 0 0 5 0 0 1 0 0 0 0 0 0 0 0 -11 0 0 0 0 0 0 -6 -11 0 0 0 0 0 0 3 3 0 0 -1 0 0 0 -1 0 2 0 0 1 1 -16 24 0 0 0 17 12 1 0 0 1 0 -1 1 -5 0 -1 1 0 0 6 11 0 -1 -2 -3 1 0 0 0 0 0 0 0 0 0 0 0 0 0 0 0 0 0 0 0 0 0 0 0 0 0 0 0 0 0 0 0 0 0 0 0 0 0 0 0 0 0 0 0 0 0 0 0 0 0 0 0 0 0 0 0 0 0 0 0 0 0 0 0 0 0 0 0 0 0 0 0 0 0 0 0 0 0 0 0 0 0 0 0 0 0 0 0 0 0 0 0 0 0 0 0 0 0 0 0 0 0 0 
0 -68 0 0 -54 0 -54 -76 -14 -5 0 0 -14 0 0 0 0 0 4 0 0 -44 0 -14 0 -4 0 0 0 0 0 0 0 -44 0 0 0 0 0 0 0 0 -9 0 0 0 0 0 -14 0 0 -14 0 0 0 0 0 0 0 0 0 0 0 0 19 0 0 0 0 0 0 0 0 0 0 0 44 0 0 0 0 0 0 0 0 0 -71 0 0 0 0 0 0 0 0 0 0 0 0 0 0 0 0 0 0 0 0 0 0 0 0 4 0 0 0 0 -4 0 0 0 0 0 0 0 0 0 0 0 0 0 4 0 0 0 0 0 0 0 0 0 0 0 0 0 0 0 0 -5 -14 0 0 -44 0 0 0 0 0 0 0 0 0 0 0 0 0 0 4 0 0 -4 0 0 0 0 0 0 0 0 0 0 0 0 0 0 0 0 0 0 0 0 0 0 0 0 0 0 0 0 0 0 0 0 0 0 0 0 0 0 0 0 0 0 0 0 0 0 0 0 0 0 0 0 0 0 0 0 0 0 0 0 0 0 0 0 0 0 0 0 0 0 0 0 0 0 0 0 0 0 0 0 0 0 0 0 0 0 0 0 0 0 0 0 0 0 0 0 0 0 0 0 0 0 0 0 0 0 
0 -4 -2 0 -5 -2 -5 0 0 0 0 0 0 0 0 0 0 0 0 0 0 0 0 0 0 0 0 0 0 0 0 0 0 0 0 0 0 0 0 0 0 0 0 0 0 0 0 0 3 0 0 3 0 0 0 0 0 0 0 0 0 0 0 0 0 0 0 0 0 0 0 0 0 0 0 0 0 0 0 0 -3 0 0 0 0 0 0 0 0 0 0 0 -3 0 0 0 0 0 0 0 0 0 0 0 0 0 0 0 0 0 0 0 0 0 0 0 0 0 0 0 0 0 0 0 0 0 0 0 0 0 0 3 0 0 0 0 0 0 0 0 0 0 0 0 0 0 0 0 0 0 0 0 0 0 0 0 0 0 0 0 0 0 0 0 0 0 0 0 0 0 0 0 0 0 0 3 0 0 0 0 0 0 0 0 0 0 0 0 0 0 0 0 0 0 0 0 0 0 0 0 0 0 0 0 0 0 0 0 0 0 0 0 0 0 0 0 0 0 0 0 0 0 0 0 0 0 0 0 0 0 0 0 0 0 0 0 0 0 0 0 0 0 0 0 0 0 0 0 0 0 0 0 0 0 0 0 0 0 0 0 0 0 0 0 0 0 0 0 0 0 0 0 0 0 0 0 
-17 0 0 0 0 0 0 -5 0 0 0 0 0 0 0 0 0 0 0 0 0 -2 0 0 0 0 0 0 -5 0 0 0 0 -2 0 0 1 0 0 0 0 0 0 0 0 0 0 0 0 1 0 0 0 0 -2 0 -17 0 0 0 0 0 0 0 -18 0 0 0 0 0 0 0 0 0 0 0 0 0 0 0 0 0 0 0 -72 -19 0 0 0 0 0 0 0 0 0 0 0 0 0 2 0 0 0 0 -7 0 0 0 -16 0 0 0 0 0 0 0 0 0 0 0 0 0 0 0 0 0 0 0 0 0 0 0 -2 0 0 0 0 0 0 0 0 0 0 0 0 1 0 0 18 0 0 0 19 19 0 0 0 0 -2 -1 1 0 16 0 0 0 0 0 0 0 0 2 0 0 0 0 0 0 0 0 0 0 0 0 0 0 0 0 0 0 0 0 0 0 0 0 0 0 0 0 0 0 0 0 0 0 0 0 0 0 0 0 0 0 0 0 0 0 0 0 0 0 0 0 0 0 0 0 0 0 0 0 0 0 0 0 0 0 0 0 0 0 0 0 0 0 0 0 0 0 0 0 0 0 0 0 0 0 0 0 0 0 0 0 0 0 0 0 0 0 0 0 0 0 0 0 
0 0 0 0 0 0 0 0 0 0 0 0 0 0 0 0 0 0 0 0 0 0 0 0 0 0 0 0 0 0 0 0 0 0 0 0 0 0 0 0 0 0 0 0 0 0 0 0 0 0 0 0 0 0 0 0 0 0 0 0 0 0 0 0 0 0 0 0 0 0 0 0 0 0 0 0 0 0 0 0 0 0 0 0 0 0 0 0 0 0 0 0 0 0 0 0 0 0 0 0 0 0 0 0 0 0 0 0 0 0 0 0 0 0 0 0 0 0 0 0 0 0 0 0 0 0 0 0 0 0 0 0 0 0 0 0 0 0 0 0 0 0 0 0 0 0 0 0 0 0 0 0 0 0 0 0 0 0 0 0 0 0 0 0 0 0 0 0 0 0 0 0 0 0 0 0 0 0 0 0 0 0 0 0 0 0 0 0 0 0 0 0 0 0 0 0 0 0 0 0 0 0 0 0 0 0 0 0 0 0 0 0 0 0 0 0 0 0 0 0 0 0 0 0 0 0 0 0 0 0 0 0 0 0 0 0 0 0 0 0 0 0 0 0 0 0 0 0 0 0 0 0 0 0 0 0 0 0 0 0 0 0 0 0 0 0 0 0 0 0 0 0 0 0 0 0 
#OUTPUT END
Model has been successfully processed
